c " random instance " 
p edges 200 2231
e 1 2
e 1 15
e 1 32
e 1 36
e 1 72
e 1 76
e 1 80
e 1 82
e 1 86
e 1 87
e 1 88
e 1 116
e 1 130
e 1 149
e 1 155
e 1 194
e 2 9
e 2 29
e 2 33
e 2 41
e 2 42
e 2 57
e 2 72
e 2 79
e 2 81
e 2 96
e 2 100
e 2 103
e 2 104
e 2 106
e 2 107
e 2 114
e 2 122
e 2 123
e 2 126
e 2 130
e 2 140
e 2 142
e 2 166
e 2 170
e 2 188
e 2 199
e 2 200
e 3 15
e 3 22
e 3 24
e 3 28
e 3 55
e 3 73
e 3 93
e 3 97
e 3 98
e 3 103
e 3 137
e 3 153
e 3 154
e 3 160
e 3 173
e 3 185
e 3 189
e 4 18
e 4 20
e 4 24
e 4 26
e 4 28
e 4 32
e 4 35
e 4 36
e 4 41
e 4 46
e 4 49
e 4 56
e 4 57
e 4 58
e 4 59
e 4 67
e 4 83
e 4 115
e 4 140
e 4 144
e 4 145
e 4 157
e 4 165
e 4 166
e 4 184
e 4 189
e 4 195
e 5 12
e 5 18
e 5 21
e 5 32
e 5 33
e 5 35
e 5 53
e 5 54
e 5 60
e 5 79
e 5 102
e 5 111
e 5 121
e 5 132
e 5 133
e 5 148
e 5 157
e 5 166
e 5 171
e 5 173
e 5 186
e 5 192
e 6 29
e 6 30
e 6 43
e 6 44
e 6 48
e 6 54
e 6 55
e 6 57
e 6 82
e 6 89
e 6 91
e 6 100
e 6 108
e 6 131
e 6 137
e 6 146
e 6 151
e 6 182
e 7 9
e 7 19
e 7 44
e 7 46
e 7 47
e 7 51
e 7 52
e 7 59
e 7 71
e 7 88
e 7 119
e 7 127
e 7 157
e 7 160
e 7 182
e 7 189
e 7 193
e 8 13
e 8 14
e 8 26
e 8 40
e 8 51
e 8 56
e 8 62
e 8 72
e 8 86
e 8 89
e 8 95
e 8 101
e 8 112
e 8 126
e 8 140
e 8 150
e 8 159
e 8 167
e 8 176
e 8 184
e 8 195
e 8 199
e 9 15
e 9 16
e 9 18
e 9 33
e 9 38
e 9 40
e 9 47
e 9 57
e 9 76
e 9 89
e 9 91
e 9 99
e 9 117
e 9 140
e 9 168
e 9 181
e 9 189
e 9 195
e 10 17
e 10 22
e 10 68
e 10 70
e 10 73
e 10 77
e 10 82
e 10 83
e 10 85
e 10 94
e 10 95
e 10 97
e 10 103
e 10 108
e 10 110
e 10 111
e 10 116
e 10 137
e 10 149
e 10 154
e 10 159
e 10 171
e 10 182
e 10 192
e 10 200
e 11 27
e 11 31
e 11 39
e 11 40
e 11 49
e 11 50
e 11 70
e 11 72
e 11 82
e 11 100
e 11 102
e 11 104
e 11 109
e 11 114
e 11 135
e 11 136
e 11 138
e 11 141
e 11 166
e 11 198
e 12 33
e 12 48
e 12 52
e 12 57
e 12 65
e 12 90
e 12 91
e 12 92
e 12 97
e 12 100
e 12 120
e 12 123
e 12 124
e 12 136
e 12 140
e 12 143
e 12 152
e 12 168
e 12 174
e 12 178
e 12 179
e 12 183
e 12 190
e 12 194
e 12 197
e 12 198
e 13 15
e 13 18
e 13 22
e 13 31
e 13 36
e 13 38
e 13 47
e 13 51
e 13 70
e 13 76
e 13 96
e 13 99
e 13 100
e 13 105
e 13 109
e 13 122
e 13 125
e 13 127
e 13 131
e 13 139
e 13 142
e 13 143
e 13 145
e 13 151
e 13 163
e 13 184
e 13 196
e 14 15
e 14 18
e 14 30
e 14 44
e 14 67
e 14 75
e 14 86
e 14 100
e 14 102
e 14 107
e 14 124
e 14 143
e 14 148
e 14 155
e 14 160
e 14 163
e 14 178
e 14 183
e 14 185
e 14 187
e 14 188
e 14 192
e 14 200
e 15 33
e 15 36
e 15 68
e 15 70
e 15 71
e 15 76
e 15 86
e 15 96
e 15 101
e 15 120
e 15 121
e 15 144
e 15 146
e 15 157
e 15 173
e 15 183
e 15 190
e 15 191
e 15 196
e 15 197
e 16 24
e 16 25
e 16 42
e 16 50
e 16 58
e 16 68
e 16 71
e 16 86
e 16 88
e 16 103
e 16 112
e 16 116
e 16 121
e 16 128
e 16 148
e 16 151
e 16 160
e 16 161
e 16 162
e 16 177
e 16 185
e 16 191
e 16 193
e 16 196
e 17 18
e 17 24
e 17 50
e 17 54
e 17 64
e 17 67
e 17 79
e 17 82
e 17 93
e 17 95
e 17 117
e 17 120
e 17 122
e 17 125
e 17 128
e 17 144
e 17 145
e 17 160
e 17 166
e 17 170
e 17 172
e 17 177
e 17 187
e 18 23
e 18 48
e 18 62
e 18 66
e 18 68
e 18 75
e 18 84
e 18 95
e 18 96
e 18 104
e 18 105
e 18 106
e 18 127
e 18 139
e 18 140
e 18 160
e 18 167
e 18 175
e 18 179
e 18 182
e 18 185
e 18 200
e 19 30
e 19 31
e 19 32
e 19 42
e 19 46
e 19 64
e 19 69
e 19 77
e 19 82
e 19 85
e 19 92
e 19 96
e 19 101
e 19 106
e 19 116
e 19 120
e 19 130
e 19 159
e 19 160
e 19 162
e 19 163
e 19 166
e 19 184
e 20 23
e 20 24
e 20 30
e 20 33
e 20 34
e 20 42
e 20 43
e 20 47
e 20 58
e 20 62
e 20 63
e 20 88
e 20 104
e 20 124
e 20 128
e 20 134
e 20 136
e 20 137
e 20 143
e 20 152
e 20 162
e 20 166
e 20 174
e 20 176
e 20 192
e 20 193
e 20 194
e 20 200
e 21 23
e 21 52
e 21 53
e 21 66
e 21 74
e 21 76
e 21 96
e 21 99
e 21 102
e 21 107
e 21 108
e 21 116
e 21 117
e 21 118
e 21 120
e 21 128
e 21 132
e 21 133
e 21 137
e 21 148
e 21 162
e 21 182
e 21 184
e 21 191
e 22 43
e 22 48
e 22 56
e 22 57
e 22 69
e 22 70
e 22 73
e 22 79
e 22 83
e 22 84
e 22 112
e 22 136
e 22 137
e 22 140
e 22 150
e 22 156
e 22 158
e 22 185
e 22 190
e 22 197
e 23 38
e 23 47
e 23 50
e 23 66
e 23 71
e 23 108
e 23 127
e 23 135
e 23 144
e 23 151
e 23 166
e 23 182
e 23 194
e 24 25
e 24 66
e 24 77
e 24 98
e 24 130
e 24 133
e 24 153
e 24 160
e 24 173
e 24 179
e 24 181
e 24 184
e 24 187
e 24 189
e 24 193
e 25 29
e 25 34
e 25 54
e 25 86
e 25 102
e 25 109
e 25 119
e 25 160
e 25 162
e 25 164
e 25 176
e 25 182
e 25 183
e 25 195
e 25 197
e 26 29
e 26 48
e 26 53
e 26 56
e 26 60
e 26 63
e 26 67
e 26 72
e 26 85
e 26 98
e 26 99
e 26 101
e 26 105
e 26 117
e 26 124
e 26 132
e 26 160
e 26 161
e 26 163
e 26 189
e 27 56
e 27 59
e 27 61
e 27 83
e 27 91
e 27 97
e 27 100
e 27 103
e 27 108
e 27 109
e 27 110
e 27 133
e 27 138
e 27 143
e 27 158
e 27 159
e 27 177
e 27 181
e 27 192
e 28 30
e 28 44
e 28 51
e 28 56
e 28 57
e 28 74
e 28 80
e 28 81
e 28 88
e 28 111
e 28 122
e 28 125
e 28 131
e 28 145
e 28 153
e 28 155
e 28 167
e 28 174
e 28 177
e 28 197
e 29 35
e 29 45
e 29 50
e 29 51
e 29 53
e 29 79
e 29 88
e 29 89
e 29 99
e 29 101
e 29 103
e 29 108
e 29 121
e 29 122
e 29 141
e 29 144
e 29 145
e 29 165
e 29 167
e 29 169
e 29 177
e 30 35
e 30 59
e 30 63
e 30 65
e 30 73
e 30 79
e 30 86
e 30 112
e 30 119
e 30 124
e 30 125
e 30 145
e 30 150
e 30 155
e 30 158
e 30 176
e 30 181
e 30 187
e 31 33
e 31 34
e 31 39
e 31 42
e 31 53
e 31 69
e 31 71
e 31 78
e 31 84
e 31 98
e 31 107
e 31 148
e 31 175
e 31 180
e 31 185
e 31 187
e 31 194
e 32 33
e 32 35
e 32 45
e 32 61
e 32 66
e 32 68
e 32 70
e 32 71
e 32 80
e 32 104
e 32 113
e 32 114
e 32 145
e 32 146
e 32 148
e 32 152
e 32 163
e 32 165
e 32 168
e 32 170
e 32 175
e 32 179
e 32 183
e 32 189
e 32 199
e 32 200
e 33 35
e 33 55
e 33 56
e 33 64
e 33 84
e 33 91
e 33 95
e 33 124
e 33 137
e 33 139
e 33 151
e 33 194
e 33 198
e 34 37
e 34 47
e 34 49
e 34 55
e 34 61
e 34 72
e 34 84
e 34 85
e 34 88
e 34 93
e 34 101
e 34 107
e 34 110
e 34 123
e 34 124
e 34 130
e 34 134
e 34 137
e 34 147
e 34 158
e 34 179
e 35 51
e 35 54
e 35 58
e 35 61
e 35 67
e 35 71
e 35 73
e 35 89
e 35 93
e 35 94
e 35 98
e 35 103
e 35 121
e 35 125
e 35 129
e 35 131
e 35 137
e 35 142
e 35 146
e 35 149
e 35 151
e 35 154
e 35 187
e 35 192
e 35 199
e 36 42
e 36 52
e 36 54
e 36 94
e 36 109
e 36 121
e 36 134
e 36 141
e 36 144
e 36 150
e 36 151
e 36 196
e 36 199
e 37 50
e 37 51
e 37 55
e 37 67
e 37 71
e 37 74
e 37 90
e 37 108
e 37 112
e 37 114
e 37 125
e 37 137
e 37 138
e 37 152
e 37 153
e 37 163
e 37 167
e 37 169
e 37 176
e 37 192
e 37 194
e 37 195
e 37 199
e 37 200
e 38 57
e 38 58
e 38 61
e 38 86
e 38 99
e 38 110
e 38 119
e 38 121
e 38 133
e 38 139
e 38 142
e 38 144
e 38 160
e 38 166
e 38 169
e 38 170
e 38 176
e 38 179
e 38 195
e 39 42
e 39 43
e 39 44
e 39 48
e 39 58
e 39 62
e 39 83
e 39 84
e 39 86
e 39 87
e 39 113
e 39 115
e 39 117
e 39 118
e 39 122
e 39 123
e 39 132
e 39 137
e 39 152
e 39 156
e 39 180
e 40 58
e 40 60
e 40 64
e 40 66
e 40 69
e 40 75
e 40 76
e 40 77
e 40 89
e 40 112
e 40 114
e 40 130
e 40 134
e 40 154
e 40 160
e 40 171
e 40 174
e 40 182
e 40 184
e 40 187
e 40 190
e 40 198
e 41 43
e 41 44
e 41 45
e 41 46
e 41 48
e 41 68
e 41 89
e 41 93
e 41 94
e 41 106
e 41 116
e 41 118
e 41 126
e 41 159
e 41 160
e 41 173
e 41 179
e 42 60
e 42 72
e 42 91
e 42 94
e 42 95
e 42 96
e 42 109
e 42 110
e 42 118
e 42 124
e 42 130
e 42 147
e 42 155
e 42 157
e 42 171
e 42 183
e 42 191
e 42 192
e 42 196
e 43 59
e 43 64
e 43 65
e 43 66
e 43 94
e 43 130
e 43 134
e 43 143
e 43 153
e 43 160
e 43 161
e 43 171
e 43 189
e 43 194
e 44 47
e 44 48
e 44 54
e 44 71
e 44 76
e 44 79
e 44 87
e 44 91
e 44 107
e 44 123
e 44 154
e 44 171
e 44 194
e 44 198
e 45 52
e 45 61
e 45 72
e 45 78
e 45 81
e 45 91
e 45 108
e 45 109
e 45 115
e 45 116
e 45 133
e 45 134
e 45 136
e 45 160
e 45 169
e 45 171
e 45 176
e 45 184
e 45 190
e 46 52
e 46 53
e 46 61
e 46 66
e 46 78
e 46 80
e 46 94
e 46 114
e 46 125
e 46 135
e 46 148
e 46 151
e 46 153
e 46 160
e 46 179
e 46 187
e 46 188
e 47 58
e 47 67
e 47 75
e 47 78
e 47 79
e 47 93
e 47 95
e 47 100
e 47 106
e 47 110
e 47 117
e 47 122
e 47 148
e 47 149
e 47 160
e 47 165
e 47 183
e 47 188
e 48 62
e 48 63
e 48 65
e 48 66
e 48 74
e 48 97
e 48 147
e 48 165
e 48 174
e 48 194
e 48 200
e 49 55
e 49 56
e 49 57
e 49 60
e 49 77
e 49 122
e 49 142
e 49 160
e 49 167
e 49 186
e 49 192
e 50 86
e 50 88
e 50 105
e 50 118
e 50 119
e 50 120
e 50 122
e 50 135
e 50 156
e 50 166
e 50 168
e 50 169
e 50 188
e 50 189
e 51 67
e 51 74
e 51 98
e 51 102
e 51 107
e 51 120
e 51 127
e 51 149
e 51 153
e 51 154
e 51 157
e 51 158
e 51 172
e 52 60
e 52 82
e 52 83
e 52 91
e 52 93
e 52 99
e 52 117
e 52 118
e 52 126
e 52 149
e 52 150
e 52 163
e 52 166
e 52 169
e 52 175
e 52 176
e 52 192
e 53 54
e 53 69
e 53 79
e 53 92
e 53 98
e 53 100
e 53 103
e 53 115
e 53 120
e 53 126
e 53 142
e 53 147
e 53 153
e 53 172
e 53 173
e 53 175
e 53 191
e 54 66
e 54 73
e 54 104
e 54 106
e 54 131
e 54 144
e 54 165
e 54 178
e 54 180
e 54 186
e 55 62
e 55 73
e 55 74
e 55 81
e 55 100
e 55 109
e 55 123
e 55 128
e 55 133
e 55 154
e 55 158
e 55 192
e 55 195
e 55 197
e 56 59
e 56 75
e 56 78
e 56 80
e 56 90
e 56 95
e 56 116
e 56 117
e 56 125
e 56 129
e 56 139
e 56 146
e 56 150
e 56 154
e 56 166
e 56 169
e 56 180
e 56 185
e 56 190
e 57 63
e 57 70
e 57 74
e 57 76
e 57 77
e 57 129
e 57 132
e 57 154
e 57 159
e 57 161
e 57 163
e 57 167
e 57 170
e 57 180
e 57 191
e 58 69
e 58 71
e 58 84
e 58 105
e 58 106
e 58 116
e 58 146
e 58 148
e 58 152
e 58 165
e 58 167
e 58 169
e 58 176
e 58 181
e 58 192
e 59 64
e 59 66
e 59 68
e 59 91
e 59 103
e 59 104
e 59 105
e 59 106
e 59 122
e 59 129
e 59 142
e 59 153
e 59 154
e 59 165
e 59 174
e 59 175
e 59 176
e 59 195
e 60 83
e 60 88
e 60 94
e 60 96
e 60 105
e 60 112
e 60 120
e 60 123
e 60 130
e 60 132
e 60 142
e 60 150
e 60 151
e 60 165
e 60 171
e 60 174
e 60 178
e 60 180
e 60 190
e 60 191
e 60 195
e 60 199
e 61 70
e 61 83
e 61 89
e 61 132
e 61 145
e 61 148
e 61 149
e 61 156
e 61 157
e 61 165
e 61 170
e 61 180
e 61 185
e 61 189
e 61 195
e 62 67
e 62 75
e 62 79
e 62 82
e 62 86
e 62 89
e 62 105
e 62 113
e 62 133
e 62 156
e 62 161
e 62 172
e 62 175
e 62 176
e 62 185
e 62 188
e 62 200
e 63 81
e 63 84
e 63 109
e 63 113
e 63 124
e 63 125
e 63 142
e 63 144
e 63 148
e 63 149
e 63 151
e 63 176
e 63 182
e 63 197
e 63 200
e 64 67
e 64 73
e 64 80
e 64 94
e 64 98
e 64 100
e 64 111
e 64 133
e 64 138
e 64 148
e 64 166
e 64 174
e 64 183
e 64 189
e 65 86
e 65 95
e 65 96
e 65 102
e 65 117
e 65 119
e 65 122
e 65 131
e 65 132
e 65 153
e 65 160
e 65 161
e 65 176
e 65 182
e 65 188
e 65 192
e 66 85
e 66 113
e 66 118
e 66 143
e 66 152
e 66 162
e 66 180
e 67 68
e 67 70
e 67 75
e 67 76
e 67 77
e 67 82
e 67 89
e 67 110
e 67 115
e 67 118
e 67 130
e 67 135
e 67 140
e 67 153
e 67 161
e 67 168
e 67 176
e 67 187
e 67 190
e 68 85
e 68 114
e 68 134
e 68 137
e 68 139
e 68 151
e 68 155
e 68 163
e 68 183
e 68 184
e 68 185
e 68 187
e 68 198
e 69 79
e 69 86
e 69 91
e 69 107
e 69 119
e 69 123
e 69 126
e 69 128
e 69 136
e 69 146
e 69 159
e 69 187
e 69 191
e 69 195
e 70 73
e 70 93
e 70 97
e 70 105
e 70 107
e 70 110
e 70 126
e 70 137
e 70 141
e 70 148
e 70 156
e 70 165
e 70 183
e 70 199
e 71 74
e 71 76
e 71 85
e 71 87
e 71 95
e 71 100
e 71 109
e 71 115
e 71 147
e 71 150
e 71 168
e 71 173
e 71 189
e 72 80
e 72 84
e 72 86
e 72 113
e 72 115
e 72 116
e 72 119
e 72 124
e 72 137
e 72 143
e 72 166
e 72 171
e 72 172
e 72 186
e 73 94
e 73 98
e 73 108
e 73 114
e 73 115
e 73 124
e 73 134
e 73 135
e 73 140
e 73 141
e 73 151
e 73 157
e 73 161
e 73 176
e 73 178
e 73 184
e 73 198
e 74 75
e 74 76
e 74 77
e 74 78
e 74 100
e 74 108
e 74 116
e 74 117
e 74 130
e 74 136
e 74 144
e 74 151
e 74 152
e 74 156
e 74 160
e 74 161
e 74 162
e 74 173
e 74 200
e 75 86
e 75 89
e 75 93
e 75 108
e 75 119
e 75 130
e 75 142
e 75 145
e 75 146
e 75 163
e 75 188
e 75 199
e 76 89
e 76 99
e 76 102
e 76 106
e 76 126
e 76 129
e 76 132
e 76 149
e 76 161
e 76 164
e 76 171
e 76 187
e 76 200
e 77 83
e 77 99
e 77 101
e 77 110
e 77 115
e 77 128
e 77 132
e 77 134
e 77 136
e 77 137
e 77 138
e 77 169
e 77 174
e 77 176
e 77 182
e 77 194
e 78 82
e 78 96
e 78 103
e 78 113
e 78 138
e 78 147
e 78 166
e 78 171
e 78 177
e 78 190
e 79 85
e 79 109
e 79 113
e 79 114
e 79 124
e 79 128
e 79 136
e 79 137
e 79 159
e 79 162
e 79 168
e 79 179
e 79 189
e 79 199
e 80 96
e 80 104
e 80 116
e 80 119
e 80 121
e 80 135
e 80 145
e 80 151
e 80 153
e 80 165
e 80 166
e 80 182
e 80 191
e 80 197
e 80 198
e 81 89
e 81 99
e 81 118
e 81 134
e 81 144
e 81 145
e 81 158
e 81 164
e 81 172
e 81 191
e 82 105
e 82 110
e 82 120
e 82 123
e 82 126
e 82 131
e 82 134
e 82 140
e 82 142
e 82 144
e 82 159
e 82 173
e 82 184
e 82 195
e 82 196
e 82 199
e 82 200
e 83 87
e 83 93
e 83 94
e 83 100
e 83 107
e 83 131
e 83 141
e 83 143
e 83 151
e 83 163
e 83 166
e 83 173
e 83 189
e 84 86
e 84 91
e 84 101
e 84 102
e 84 108
e 84 110
e 84 126
e 84 131
e 84 136
e 84 139
e 84 165
e 84 182
e 84 188
e 85 96
e 85 104
e 85 105
e 85 107
e 85 114
e 85 119
e 85 123
e 85 128
e 85 133
e 85 137
e 85 153
e 85 157
e 85 167
e 85 181
e 85 188
e 85 193
e 85 197
e 86 101
e 86 112
e 86 113
e 86 128
e 86 129
e 86 137
e 86 143
e 86 163
e 86 197
e 87 89
e 87 95
e 87 98
e 87 100
e 87 117
e 87 129
e 87 130
e 87 146
e 87 169
e 87 190
e 88 89
e 88 101
e 88 105
e 88 113
e 88 126
e 88 127
e 88 142
e 88 143
e 88 153
e 88 160
e 88 185
e 88 189
e 88 193
e 89 106
e 89 111
e 89 113
e 89 120
e 89 123
e 89 127
e 89 128
e 89 136
e 89 160
e 89 165
e 89 170
e 89 171
e 89 174
e 89 177
e 89 197
e 90 96
e 90 116
e 90 126
e 90 135
e 90 143
e 90 159
e 90 173
e 90 196
e 91 95
e 91 113
e 91 114
e 91 155
e 91 157
e 91 161
e 91 169
e 91 171
e 91 174
e 92 97
e 92 100
e 92 103
e 92 107
e 92 113
e 92 130
e 92 138
e 92 142
e 92 153
e 92 157
e 92 159
e 92 160
e 92 170
e 92 172
e 92 183
e 92 194
e 92 198
e 93 123
e 93 129
e 93 138
e 93 144
e 93 151
e 93 164
e 93 180
e 93 184
e 93 189
e 94 98
e 94 101
e 94 113
e 94 116
e 94 121
e 94 123
e 94 127
e 94 133
e 94 143
e 94 160
e 94 191
e 95 138
e 95 144
e 95 159
e 95 161
e 95 166
e 96 98
e 96 113
e 96 133
e 96 155
e 96 170
e 96 176
e 96 182
e 96 186
e 96 199
e 96 200
e 97 100
e 97 103
e 97 109
e 97 110
e 97 114
e 97 116
e 97 150
e 97 155
e 97 163
e 97 165
e 97 172
e 97 173
e 97 177
e 97 179
e 97 182
e 97 184
e 97 196
e 97 197
e 98 99
e 98 121
e 98 123
e 98 132
e 98 137
e 98 160
e 98 161
e 98 170
e 98 176
e 98 179
e 98 182
e 99 109
e 99 110
e 99 126
e 99 130
e 99 134
e 99 162
e 99 192
e 99 200
e 100 103
e 100 110
e 100 111
e 100 118
e 100 128
e 100 130
e 100 145
e 100 150
e 100 158
e 100 159
e 100 164
e 100 166
e 100 168
e 100 192
e 100 199
e 101 106
e 101 110
e 101 131
e 101 133
e 101 137
e 101 141
e 101 162
e 101 173
e 101 175
e 101 200
e 102 105
e 102 110
e 102 133
e 102 136
e 102 149
e 102 162
e 102 173
e 102 181
e 102 182
e 103 116
e 103 122
e 103 140
e 103 146
e 103 170
e 103 175
e 103 178
e 103 185
e 103 190
e 103 193
e 104 119
e 104 123
e 104 138
e 104 140
e 104 160
e 104 166
e 104 167
e 104 173
e 104 188
e 104 194
e 104 195
e 104 199
e 105 112
e 105 124
e 105 127
e 105 134
e 105 143
e 105 153
e 105 166
e 105 168
e 105 169
e 105 170
e 105 178
e 105 191
e 106 108
e 106 111
e 106 124
e 106 125
e 106 130
e 106 134
e 106 143
e 106 148
e 106 167
e 106 179
e 107 114
e 107 119
e 107 128
e 107 144
e 107 152
e 107 158
e 107 172
e 107 174
e 107 187
e 107 195
e 108 116
e 108 118
e 108 120
e 108 121
e 108 122
e 108 129
e 108 136
e 108 141
e 108 158
e 108 176
e 108 177
e 108 180
e 108 182
e 108 184
e 108 187
e 108 188
e 108 195
e 108 198
e 109 122
e 109 124
e 109 125
e 109 131
e 109 136
e 109 140
e 109 144
e 109 152
e 109 158
e 109 159
e 109 173
e 109 197
e 109 198
e 110 132
e 110 133
e 110 148
e 110 154
e 110 164
e 110 169
e 110 172
e 110 175
e 110 177
e 110 182
e 110 187
e 110 189
e 110 194
e 110 195
e 110 196
e 111 112
e 111 113
e 111 115
e 111 128
e 111 132
e 111 136
e 111 141
e 111 144
e 111 148
e 111 150
e 111 164
e 111 167
e 111 168
e 111 176
e 111 180
e 111 192
e 112 114
e 112 117
e 112 119
e 112 142
e 112 145
e 112 149
e 112 150
e 112 154
e 112 162
e 112 182
e 112 196
e 112 197
e 113 114
e 113 119
e 113 135
e 113 145
e 113 168
e 113 169
e 113 179
e 113 183
e 113 190
e 114 115
e 114 119
e 114 125
e 114 132
e 114 158
e 114 163
e 114 176
e 114 180
e 114 182
e 114 185
e 114 187
e 114 199
e 115 117
e 115 118
e 115 119
e 115 124
e 115 140
e 115 148
e 115 155
e 115 158
e 115 189
e 116 130
e 116 135
e 116 136
e 116 147
e 116 167
e 116 192
e 117 122
e 117 137
e 117 150
e 117 162
e 117 171
e 117 172
e 118 123
e 118 124
e 118 143
e 118 148
e 118 150
e 118 163
e 118 164
e 118 171
e 118 173
e 119 130
e 119 134
e 119 141
e 119 145
e 119 178
e 119 186
e 119 196
e 120 124
e 120 128
e 120 129
e 120 134
e 120 140
e 120 147
e 120 172
e 120 180
e 120 193
e 121 132
e 121 140
e 121 147
e 121 152
e 121 160
e 121 162
e 121 167
e 121 172
e 121 174
e 121 187
e 121 191
e 121 193
e 122 130
e 122 132
e 122 159
e 122 162
e 122 174
e 122 186
e 122 195
e 123 126
e 123 137
e 123 156
e 123 168
e 123 172
e 123 174
e 123 193
e 123 198
e 124 131
e 124 141
e 124 142
e 124 144
e 124 150
e 124 154
e 124 172
e 124 174
e 124 175
e 125 129
e 125 167
e 125 177
e 125 180
e 126 137
e 126 151
e 126 166
e 126 167
e 126 181
e 127 130
e 127 134
e 127 137
e 127 143
e 127 157
e 127 158
e 127 168
e 127 172
e 127 186
e 128 129
e 128 130
e 128 132
e 128 138
e 128 142
e 128 145
e 128 147
e 128 148
e 128 176
e 128 186
e 128 197
e 129 148
e 129 156
e 129 160
e 129 169
e 129 177
e 129 194
e 129 198
e 130 149
e 130 165
e 130 179
e 130 183
e 130 190
e 130 193
e 130 200
e 131 145
e 131 147
e 131 151
e 131 158
e 131 164
e 131 168
e 131 169
e 132 134
e 132 149
e 132 151
e 132 160
e 132 171
e 132 182
e 132 196
e 133 141
e 133 143
e 133 151
e 133 198
e 133 200
e 134 152
e 134 160
e 134 180
e 134 181
e 134 191
e 135 154
e 135 181
e 135 190
e 135 196
e 135 200
e 136 138
e 136 150
e 136 151
e 136 159
e 136 169
e 136 170
e 136 179
e 136 180
e 136 181
e 136 185
e 136 186
e 136 188
e 136 196
e 137 151
e 137 158
e 137 170
e 137 175
e 137 177
e 138 151
e 138 152
e 138 155
e 138 172
e 138 185
e 138 192
e 138 198
e 138 199
e 139 143
e 139 176
e 139 188
e 139 189
e 140 144
e 140 145
e 140 148
e 140 157
e 140 162
e 140 165
e 140 178
e 140 186
e 140 191
e 140 195
e 141 151
e 141 159
e 141 163
e 141 172
e 141 180
e 141 197
e 142 152
e 142 170
e 142 180
e 142 189
e 143 154
e 143 160
e 143 164
e 143 166
e 143 171
e 143 172
e 143 181
e 143 183
e 143 185
e 143 196
e 143 197
e 143 198
e 143 200
e 144 170
e 144 172
e 144 180
e 144 183
e 144 197
e 145 156
e 145 170
e 145 185
e 145 187
e 145 190
e 145 194
e 145 196
e 146 159
e 146 164
e 146 177
e 146 194
e 147 162
e 147 176
e 147 177
e 147 180
e 148 170
e 148 187
e 148 194
e 149 164
e 149 178
e 149 191
e 149 193
e 150 151
e 150 170
e 150 177
e 150 180
e 150 195
e 151 152
e 151 170
e 151 185
e 152 153
e 152 154
e 152 158
e 152 160
e 152 163
e 152 164
e 152 175
e 152 192
e 152 198
e 152 200
e 153 159
e 153 177
e 153 181
e 153 192
e 153 193
e 153 198
e 154 158
e 154 159
e 154 176
e 154 188
e 154 195
e 155 156
e 155 158
e 155 172
e 155 174
e 155 175
e 155 178
e 155 187
e 155 193
e 155 194
e 156 164
e 156 166
e 156 167
e 156 175
e 156 178
e 156 184
e 156 200
e 157 166
e 157 177
e 157 194
e 157 199
e 157 200
e 158 163
e 158 168
e 158 174
e 158 179
e 159 163
e 159 164
e 159 170
e 159 176
e 159 185
e 159 192
e 159 195
e 160 161
e 160 172
e 160 176
e 160 186
e 161 185
e 161 188
e 161 194
e 162 165
e 162 167
e 162 174
e 162 182
e 162 196
e 162 197
e 162 199
e 163 166
e 163 171
e 163 184
e 163 192
e 164 165
e 164 166
e 164 170
e 164 172
e 164 176
e 164 191
e 164 193
e 165 173
e 165 178
e 165 191
e 166 167
e 166 196
e 167 171
e 167 173
e 167 189
e 168 169
e 169 171
e 169 179
e 169 192
e 169 193
e 171 173
e 171 174
e 171 182
e 171 183
e 171 194
e 171 200
e 172 183
e 173 179
e 173 181
e 173 187
e 173 190
e 173 194
e 173 197
e 173 199
e 175 198
e 176 178
e 176 193
e 176 194
e 176 198
e 177 182
e 177 194
e 177 195
e 178 188
e 178 190
e 178 198
e 179 180
e 179 184
e 179 187
e 180 181
e 180 196
e 181 192
e 182 191
e 182 194
e 182 199
e 183 187
e 183 198
e 184 187
e 184 196
e 184 200
e 186 194
e 186 197
e 188 193
e 188 194
e 188 196
e 188 197
e 189 199
e 190 198
e 191 192
e 192 197
e 197 198
